
List of user-set options:

                                    Name   Value                used
                           compl_inf_tol = 1                     yes
                         constr_viol_tol = 1                     yes
                            dual_inf_tol = 1000                  yes
                           linear_solver = ma97                  yes
                              ma86_small = 1e-30                  no
                                  ma86_u = 0.0001                 no
                              ma97_order = best                  yes
                              ma97_small = 1e-30                 yes
                            ma97_switch1 = at_start              yes
                            ma97_switch2 = od_hd_reuse           yes
                                  ma97_u = 1e-06                 yes
                               ma97_umax = 0.5                   yes
                                max_iter = 1000                  yes
                    max_refinement_steps = 20                    yes
                    min_refinement_steps = 5                     yes
                                 mu_init = 1e-06                 yes
           mu_superlinear_decrease_power = 1.25                  yes
                   nlp_scaling_min_value = 1e-08                 yes
                        option_file_name = Preset_Case:_252_NCP.opt  yes
                             output_file = ./tmp/Preset_Case:_252_NCP.output  yes
                      print_user_options = yes                   yes
        required_infeasibility_reduction = 1                      no
                                     tol = 1e-08                 yes
                   warm_start_bound_frac = 1e-20                 yes
                   warm_start_bound_push = 1e-20                 yes
                   warm_start_init_point = yes                   yes
              warm_start_mult_bound_push = 1e-20                 yes
                warm_start_mult_init_max = 1e+40                 yes
             warm_start_slack_bound_frac = 1e-20                 yes
             warm_start_slack_bound_push = 1e-20                 yes

******************************************************************************
This program contains Ipopt, a library for large-scale nonlinear optimization.
 Ipopt is released as open source code under the Eclipse Public License (EPL).
         For more information visit http://projects.coin-or.org/Ipopt
******************************************************************************

This is Ipopt version 3.12.10, running with linear solver ma97.

Number of nonzeros in equality constraint Jacobian...:   117167
Number of nonzeros in inequality constraint Jacobian.:      213
Number of nonzeros in Lagrangian Hessian.............:    47513

Total number of variables............................:    29977
                     variables with only lower bounds:    11312
                variables with lower and upper bounds:    15135
                     variables with only upper bounds:        0
Total number of equality constraints.................:    29864
Total number of inequality constraints...............:       25
        inequality constraints with only lower bounds:        4
   inequality constraints with lower and upper bounds:        0
        inequality constraints with only upper bounds:       21

iter    objective    inf_pr   inf_du lg(mu)  ||d||  lg(rg) alpha_du alpha_pr  ls
   0 -1.6470741e-01 2.17e-01 2.00e+00  -6.0 0.00e+00    -  0.00e+00 0.00e+00   0
In iteration 0, 7 Slacks too small, adjusting variable bounds
   1 -1.6470741e-01 2.17e-01 7.04e+02  -6.0 1.11e+10    -  7.04e-14 1.00e-16h  1
   2 -1.6470690e-01 2.17e-01 7.05e+02  -6.0 4.91e+02    -  2.94e-08 7.58e-06f  1
   3 -1.6470689e-01 2.17e-01 7.01e+02  -6.0 6.49e-01    -  1.71e-02 1.49e-05f  1
   4 -1.6470391e-01 2.17e-01 7.01e+02  -6.0 3.30e+01    -  4.31e-04 1.35e-04f  1
   5 -1.6469430e-01 2.17e-01 6.94e+02  -6.0 3.89e+01    -  3.93e-02 3.78e-04h  1
   6 -1.6469614e-01 2.17e-01 6.72e+02  -6.0 2.43e+02    -  9.50e-02 1.99e-04f  1
   7 -1.6406969e-01 2.09e-01 6.37e+02  -6.0 7.08e+01    -  9.79e-02 3.83e-02h  2
   8 -1.6145029e-01 1.95e-01 6.02e+02  -6.0 6.96e+01    -  3.15e-02 6.44e-02h  1
   9 -1.6144971e-01 1.95e-01 1.60e+04  -6.0 9.66e+01    -  1.90e-02 2.10e-05h  1
iter    objective    inf_pr   inf_du lg(mu)  ||d||  lg(rg) alpha_du alpha_pr  ls
  10 -1.6054987e-01 1.85e-01 1.20e+04  -6.0 7.67e+01    -  1.55e-02 5.10e-02h  3
  11 -1.5954365e-01 1.77e-01 4.56e+03  -6.0 5.88e+01    -  5.09e-02 4.34e-02h  1
  12 -1.5875742e-01 1.71e-01 3.30e+04  -6.0 5.51e+01    -  7.61e-02 3.84e-02h  4
  13 -1.5804755e-01 1.65e-01 5.95e+04  -6.0 5.51e+01    -  6.08e-02 3.31e-02h  4
  14 -1.5733779e-01 1.59e-01 8.89e+04  -6.0 5.38e+01    -  6.59e-02 3.44e-02h  4
  15 -1.5606823e-01 1.49e-01 6.50e+04  -6.0 5.24e+01    -  4.23e-02 6.20e-02h  2
  16 -1.5505265e-01 1.42e-01 8.52e+04  -6.0 4.78e+01    -  7.00e-02 4.77e-02h  3
  17 -1.5448621e-01 1.37e-01 5.36e+04  -6.0 3.27e+01    -  6.73e-03 3.52e-02h  4
  18 -1.5348388e-01 1.28e-01 7.11e+04  -6.0 3.11e+01    -  8.36e-02 6.42e-02h  3
  19 -1.5252868e-01 1.21e-01 1.79e+05  -6.0 3.23e+01    -  1.66e-01 6.10e-02h  3
iter    objective    inf_pr   inf_du lg(mu)  ||d||  lg(rg) alpha_du alpha_pr  ls
  20 -1.5135374e-01 1.12e-01 3.13e+05  -6.0 3.40e+01    -  2.37e-01 7.49e-02h  3
  21 -1.5048607e-01 1.05e-01 3.75e+05  -6.0 3.61e+01    -  1.78e-01 5.63e-02h  4
  22 -1.4303362e-01 1.10e+00 2.07e+04  -6.0 4.02e+01    -  1.80e-01 5.53e-01w  1
  23 -1.4041167e-01 7.54e-01 1.95e+05  -6.0 2.48e+01    -  5.39e-01 3.14e-01w  1
  24 -1.3547667e-01 1.12e+00 1.49e+05  -6.0 2.29e+01    -  6.56e-01 1.00e+00w  1
  25 -1.3681015e-01 1.45e-01 6.22e+04  -6.0 1.56e+01    -  6.63e-01 1.00e+00h  1
  26 -1.3737086e-01 1.12e-01 3.60e+04  -6.0 4.96e+00  -4.0 4.50e-01 5.56e-01h  1
  27 -1.3962349e-01 7.81e-02 2.06e+06  -6.0 1.04e+01  -4.5 1.84e-03 7.03e-01F  1
  28 -1.4044863e-01 8.79e-02 1.13e+06  -6.0 1.90e+02    -  8.53e-02 5.81e-02h  1
  29r-1.4044863e-01 8.79e-02 1.00e+03  -1.4 0.00e+00    -  0.00e+00 2.75e-07R  4
iter    objective    inf_pr   inf_du lg(mu)  ||d||  lg(rg) alpha_du alpha_pr  ls
  30r-1.4021694e-01 8.28e-02 1.00e+03  -1.4 2.64e+03    -  6.66e-05 5.85e-05f  1
  31 -1.4023110e-01 7.54e-02 1.64e+07  -6.0 9.09e-01    -  2.54e-01 8.86e-02h  1
  32 -1.4022891e-01 3.29e-02 1.43e+08  -6.0 1.88e+00    -  8.87e-02 5.66e-01h  1
  33 -1.4017722e-01 4.45e-03 1.86e+07  -6.0 6.79e-01    -  8.35e-01 8.69e-01h  1
  34 -1.4036705e-01 8.08e-05 1.82e+02  -6.0 1.44e+00    -  9.14e-01 1.00e+00h  1
  35 -1.4340100e-01 1.17e-01 1.23e+01  -6.0 1.60e+01    -  1.73e-01 1.00e+00h  1
  36 -1.4596964e-01 1.03e-02 7.47e+00  -6.0 1.87e+01    -  3.84e-01 1.00e+00h  1
  37 -1.4889266e-01 3.29e-02 4.85e+00  -6.0 2.88e+01    -  4.98e-01 8.34e-01h  1
  38 -1.5525363e-01 1.38e-02 1.08e+01  -6.0 5.34e+01    -  6.13e-01 1.00e+00H  1
  39 -1.5923114e-01 5.79e-02 8.78e+00  -6.0 1.43e+02    -  2.46e-01 2.67e-01h  1
iter    objective    inf_pr   inf_du lg(mu)  ||d||  lg(rg) alpha_du alpha_pr  ls
  40 -1.6884482e-01 4.52e-01 1.33e+01  -6.0 2.10e+02    -  4.13e-01 5.70e-01h  1
  41 -1.7381599e-01 4.56e-01 1.30e+01  -6.0 2.32e+03    -  2.13e-02 2.12e-02h  1
  42 -1.7494621e-01 9.10e-01 3.25e+01  -6.0 1.41e+02    -  1.11e-04 3.55e-01h  1
  43 -1.7532512e-01 8.19e-01 2.71e+01  -6.0 6.01e+01    -  3.04e-01 1.11e-01h  1
  44 -1.7669234e-01 9.41e-01 1.99e+01  -6.0 1.08e+02    -  2.87e-01 2.67e-01h  1
  45 -1.8033569e-01 5.20e+00 6.45e+01  -6.0 1.81e+02    -  4.51e-01 5.53e-01h  1
  46 -1.8066895e-01 5.00e+00 6.20e+01  -6.0 3.63e+02    -  7.10e-01 4.67e-02h  1
  47 -1.8065739e-01 4.35e+00 5.44e+01  -6.0 3.31e+00  -5.0 2.70e-01 1.29e-01h  1
  48 -1.8080670e-01 1.81e+00 2.35e+01  -6.0 5.46e+00  -5.4 8.49e-01 5.94e-01h  1
  49 -1.8095770e-01 1.22e+00 1.56e+01  -6.0 4.27e+00  -5.9 9.74e-01 3.34e-01h  1
iter    objective    inf_pr   inf_du lg(mu)  ||d||  lg(rg) alpha_du alpha_pr  ls
  50 -1.8124352e-01 4.28e-01 4.92e+00  -6.0 1.08e+01  -6.4 1.00e+00 6.54e-01h  1
  51 -1.8187215e-01 1.05e-01 8.78e-01  -6.0 2.83e+01  -6.9 1.00e+00 1.00e+00h  1
  52 -1.8214835e-01 8.48e-02 6.40e+00  -6.0 7.93e+01  -7.3 1.00e+00 1.78e-01h  1
  53 -1.8282459e-01 7.39e-02 8.76e+00  -6.0 2.96e+02  -7.8 1.00e+00 1.80e-01h  1
  54 -1.8422507e-01 3.51e-01 4.86e+00  -6.0 9.19e+01  -7.4 1.00e+00 1.00e+00h  1
  55 -1.8465799e-01 3.17e-01 1.57e+01  -6.0 5.92e+02  -7.9 1.00e+00 8.51e-02h  1
  56 -1.8987593e-01 3.61e+00 6.98e+01  -6.0 1.35e+03  -8.3 4.79e-01 3.44e-01h  1
  57 -1.8988032e-01 3.57e+00 6.88e+01  -6.0 4.07e+00  -2.5 1.97e-02 9.55e-03h  1
  58 -1.8988215e-01 3.55e+00 6.86e+01  -6.0 3.13e+01  -3.0 1.06e-03 6.61e-03h  1
  59 -1.8988354e-01 3.53e+00 6.82e+01  -6.0 8.42e+00  -2.6 6.42e-03 6.51e-03h  1
iter    objective    inf_pr   inf_du lg(mu)  ||d||  lg(rg) alpha_du alpha_pr  ls
  60 -1.8988596e-01 3.49e+00 6.62e+01  -6.0 3.61e+00  -2.1 5.11e-02 8.72e-03h  1
  61 -1.8987634e-01 3.25e+00 6.37e+01  -6.0 1.24e+01  -2.6 1.03e-02 7.12e-02h  1
  62 -1.8987309e-01 3.12e+00 6.14e+01  -6.0 6.28e+00  -2.2 4.95e-02 3.84e-02h  1
  63 -1.8987690e-01 3.00e+00 6.07e+01  -6.0 2.28e+00  -1.8 1.21e-01 3.94e-02h  1
  64 -1.8984596e-01 2.24e+00 1.39e+02  -6.0 1.15e+01  -2.2 5.85e-02 2.51e-01h  1
  65 -1.8986722e-01 2.07e+00 1.19e+02  -6.0 3.07e+00  -1.8 2.94e-01 7.49e-02h  1
  66 -1.9014721e-01 3.00e-01 2.48e+03  -6.0 3.62e+00  -2.3 3.52e-01 1.00e+00h  1
  67 -1.9019693e-01 1.41e-02 5.84e+02  -6.0 7.00e-01  -2.8 8.77e-01 1.00e+00h  1
  68 -1.9002070e-01 4.40e-04 5.76e+01  -6.0 1.72e+00  -3.2 4.72e-01 1.00e+00H  1
  69 -1.8979754e-01 1.09e-04 1.63e+03  -6.0 2.04e+00  -3.7 6.46e-01 1.00e+00H  1
iter    objective    inf_pr   inf_du lg(mu)  ||d||  lg(rg) alpha_du alpha_pr  ls
  70 -1.8982442e-01 9.53e-05 1.36e+03  -6.0 3.15e-01  -4.2 1.00e+00 1.71e-01h  3
  71 -1.9001498e-01 2.12e-03 9.71e+02  -6.0 1.03e+00  -4.7 1.00e+00 3.16e-01h  1
  72 -1.9014564e-01 5.78e-03 7.02e+02  -6.0 2.02e+00  -5.1 1.00e+00 2.95e-01f  1
  73 -1.9017568e-01 5.67e-03 6.40e+02  -6.0 3.73e+00  -5.6 1.00e+00 8.97e-02h  1
  74 -1.9034812e-01 1.42e-02 6.86e+01  -6.0 5.12e+00  -6.1 1.00e+00 1.00e+00h  1
  75 -1.9062280e-01 1.33e-02 1.27e-01  -6.0 1.56e+01  -6.6 1.00e+00 1.00e+00h  1
  76 -1.9134603e-01 4.33e-02 3.07e-01  -6.0 4.78e+01  -7.1 1.00e+00 1.00e+00h  1
  77 -1.9353826e-01 4.34e-01 2.46e+00  -6.0 1.53e+02  -7.5 1.00e+00 1.00e+00h  1
  78 -1.9644341e-01 1.60e+00 3.98e+01  -6.0 5.59e+02  -8.0 9.76e-01 3.86e-01h  1
  79 -1.9865129e-01 1.49e+00 2.98e+01  -6.0 1.09e+03  -8.5 3.46e-01 1.54e-01h  1
iter    objective    inf_pr   inf_du lg(mu)  ||d||  lg(rg) alpha_du alpha_pr  ls
  80 -2.0030019e-01 1.21e+00 5.02e+01  -6.0 3.71e+02  -8.1 1.00e+00 3.03e-01h  1
  81 -2.0715384e-01 9.81e+00 3.00e+01  -6.0 1.58e+03  -8.5 5.98e-01 4.14e-01h  1
  82 -2.1266410e-01 5.77e+00 3.77e+00  -6.0 5.43e+02  -8.1 1.00e+00 8.93e-01h  1
  83 -2.1652704e-01 8.62e+00 4.37e+00  -6.0 2.49e+03  -8.6 1.82e-01 1.76e-01h  1
  84 -2.1655363e-01 8.18e+00 5.50e+00  -6.0 1.34e+01  -5.4 1.00e+00 5.10e-02h  1
  85 -2.1660387e-01 6.94e+00 2.18e+01  -6.0 8.96e+00  -5.9 7.11e-01 1.52e-01h  1
  86 -2.1696773e-01 6.76e-02 1.74e+00  -6.0 1.09e+01  -6.4 4.65e-01 1.00e+00h  1
  87 -2.1732098e-01 2.16e-02 1.14e+01  -6.0 3.31e+01  -6.9 5.48e-01 1.00e+00h  1
  88 -2.1843654e-01 1.97e-01 2.10e-01  -6.0 9.99e+01  -7.4 9.64e-01 1.00e+00h  1
  89 -2.2183179e-01 1.78e+00 2.46e+00  -6.0 3.02e+02  -7.8 1.00e+00 1.00e+00h  1
iter    objective    inf_pr   inf_du lg(mu)  ||d||  lg(rg) alpha_du alpha_pr  ls
  90 -2.2345731e-01 1.81e+00 3.87e+01  -6.0 9.67e+02  -8.3 1.00e+00 1.43e-01h  1
  91 -2.2758168e-01 1.85e+00 1.06e+01  -6.0 3.12e+02  -7.9 1.00e+00 1.00e+00h  1
  92 -2.3018633e-01 2.92e+00 2.64e+01  -6.0 4.07e+03  -8.4 3.25e-01 8.63e-02h  1
  93 -2.3158931e-01 2.91e+00 8.03e+01  -6.0 9.86e+02  -7.9 1.00e+00 1.21e-01h  1
  94 -2.3495570e-01 3.97e+00 5.68e+01  -6.0 2.99e+03  -8.4 2.86e-02 1.33e-01h  1
  95 -2.3519731e-01 3.57e+00 4.81e+01  -6.0 4.39e+02  -8.0 1.68e-01 9.96e-02h  1
  96 -2.3743790e-01 2.66e+00 6.92e+01  -6.0 3.31e+02  -7.6 1.00e+00 4.22e-01h  1
  97 -2.3779803e-01 2.54e+00 7.39e+01  -6.0 4.01e+02  -8.0 2.31e-01 4.86e-02h  1
  98 -2.3839086e-01 2.31e+00 2.02e+02  -6.0 3.56e+02  -7.6 7.17e-01 1.05e-01h  1
  99 -2.3902352e-01 2.09e+00 4.05e+02  -6.0 4.80e+02  -8.1 2.84e-01 1.05e-01h  1
iter    objective    inf_pr   inf_du lg(mu)  ||d||  lg(rg) alpha_du alpha_pr  ls
 100 -2.3962127e-01 1.37e+00 4.58e+02  -6.0 7.03e+01  -7.7 8.35e-02 3.41e-01h  1
 101 -2.4028785e-01 1.02e+00 4.52e+02  -6.0 2.17e+02  -8.1 3.28e-02 2.72e-01h  1
 102 -2.4075158e-01 8.89e-01 3.70e+03  -6.0 3.72e+02  -8.6 7.91e-02 1.33e-01h  1
 103 -2.4241517e-01 4.39e-01 1.62e+03  -6.0 1.53e+02  -8.2 8.69e-02 8.19e-01h  1
 104 -2.4242009e-01 4.28e-01 3.14e+03  -6.0 2.74e+02  -6.9 3.71e-02 2.68e-02h  1
 105 -2.4232115e-01 3.47e-01 2.08e+04  -6.0 3.03e+02  -7.3 1.00e-01 1.89e-01f  1
 106 -2.4241708e-01 3.26e-01 1.58e+03  -6.0 1.73e+02  -7.8 1.29e-01 6.21e-02f  1
 107 -2.4265590e-01 2.82e-01 1.86e+03  -6.0 3.14e+02  -8.3 1.30e-01 1.42e-01h  1
 108 -2.4409937e-01 6.48e-01 3.20e+03  -6.0 6.36e+02  -8.8 2.36e-01 3.44e-01h  1
 109 -2.4438807e-01 8.18e-01 5.72e+06  -6.0 1.27e+03  -8.3 7.83e-04 8.70e-02h  1
iter    objective    inf_pr   inf_du lg(mu)  ||d||  lg(rg) alpha_du alpha_pr  ls
 110 -2.4638525e-01 1.72e+00 2.86e+06  -6.0 5.56e+02  -8.8 8.91e-02 4.98e-01h  1
 111 -2.4756040e-01 1.06e+00 5.73e+02  -6.0 2.16e+02  -8.4 4.16e-02 1.00e+00h  1
 112 -2.4879258e-01 1.73e+00 3.83e+02  -6.0 7.35e+02  -8.9 7.92e-01 3.33e-01h  1
 113 -2.5009711e-01 1.35e+00 5.15e+00  -6.0 2.42e+02  -8.4 9.30e-01 1.00e+00h  1
 114 -2.5055425e-01 1.86e+00 1.04e+01  -6.0 1.80e+03  -8.9 7.70e-02 9.20e-02h  1
 115 -2.5214392e-01 2.44e+00 2.18e+02  -6.0 3.05e+02  -8.5 2.44e-01 1.00e+00h  1
 116 -2.5234861e-01 2.35e+00 1.91e+02  -6.0 3.39e+03  -9.0 3.49e-02 2.75e-02h  1
 117 -2.5256525e-01 2.09e+00 6.11e+01  -6.0 3.57e+02  -8.6 2.53e-01 1.16e-01h  1
 118 -2.5412154e-01 9.35e+00 1.06e+03  -6.0 1.24e+03  -9.0 1.30e-01 4.97e-01h  1
 119 -2.5433721e-01 9.57e+00 1.08e+03  -6.0 4.73e+03  -9.5 1.44e-01 1.92e-02h  1
iter    objective    inf_pr   inf_du lg(mu)  ||d||  lg(rg) alpha_du alpha_pr  ls
 120 -2.5510676e-01 6.74e+00 7.60e+02  -6.0 7.55e+02  -9.1 7.33e-02 3.30e-01h  1
 121 -2.5542965e-01 6.35e+00 6.83e+02  -6.0 1.58e+03  -9.6 2.43e-01 8.87e-02h  1
 122 -2.5653144e-01 9.13e+00 5.57e+02  -6.0 5.94e+03 -10.0 1.73e-01 1.86e-01h  1
 123 -2.5747505e-01 7.70e+00 4.71e+02  -6.0 5.80e+03 -10.5 1.01e-01 1.57e-01h  1
 124 -2.5760080e-01 7.54e+00 9.99e+02  -6.0 1.01e+04    -  1.73e-01 2.04e-02h  1
 125 -2.5783187e-01 5.70e+01 2.43e+04  -6.0 3.63e+04    -  7.17e-04 5.75e-02h  1
 126 -2.5845611e-01 5.84e+01 2.10e+04  -6.0 6.44e+03    -  1.49e-01 1.37e-01h  1
 127 -2.5882338e-01 5.33e+01 1.90e+04  -6.0 8.19e+03    -  9.06e-02 9.95e-02h  1
 128 -2.5891504e-01 4.75e+01 1.61e+04  -6.0 5.41e+03    -  6.08e-01 1.34e-01h  1
 129 -2.5891357e-01 4.72e+01 1.60e+04  -6.0 5.27e+00  -0.7 3.84e-03 4.90e-03h  1
iter    objective    inf_pr   inf_du lg(mu)  ||d||  lg(rg) alpha_du alpha_pr  ls
 130 -2.5891060e-01 4.66e+01 1.58e+04  -6.0 5.24e+00  -1.1 1.32e-02 1.27e-02h  1
 131 -2.5890437e-01 4.50e+01 1.52e+04  -6.0 5.18e+00  -1.6 1.57e-03 3.44e-02h  1
 132 -2.5889722e-01 4.40e+01 1.49e+04  -6.0 5.00e+00  -2.1 5.06e-02 2.35e-02h  1
 133 -2.5887322e-01 3.87e+01 1.31e+04  -6.0 4.88e+00  -2.6 1.11e-01 1.20e-01h  1
 134 -2.5885488e-01 3.68e+01 1.24e+04  -6.0 8.79e+00  -3.1 6.82e-03 4.75e-02h  1
 135 -2.5880930e-01 3.14e+01 1.06e+04  -6.0 4.21e+00  -3.5 1.67e-01 1.48e-01h  1
 136 -2.5873414e-01 2.21e+01 7.49e+03  -6.0 3.49e+00  -4.0 4.69e-01 2.98e-01h  1
 137 -2.5859397e-01 2.95e-02 5.19e+02  -6.0 2.45e+00  -3.6 1.00e+00 1.00e+00h  1
 138 -2.5861159e-01 4.79e-04 1.15e+01  -6.0 2.26e-01  -4.1 5.06e-01 1.00e+00h  1
 139 -2.5862371e-01 4.08e-04 9.31e+00  -6.0 5.21e-01  -4.5 1.93e-01 1.60e-01h  1
iter    objective    inf_pr   inf_du lg(mu)  ||d||  lg(rg) alpha_du alpha_pr  ls
 140 -2.5863941e-01 7.96e-04 1.86e+00  -6.0 1.29e+00  -5.0 9.52e-01 2.56e-01f  1
 141 -2.5872402e-01 3.27e-02 4.94e-01  -6.0 2.14e+00  -5.5 7.79e-01 9.82e-01f  1
 142 -2.5874745e-01 2.87e-02 2.74e+00  -6.0 3.06e+00  -6.0 1.00e+00 1.54e-01f  1
 143 -2.5878242e-01 1.93e-02 1.18e+00  -6.0 3.77e+00  -6.4 1.00e+00 3.36e-01h  1
 144 -2.5889737e-01 1.23e-02 4.56e-01  -6.0 1.03e+01  -6.9 1.00e+00 9.62e-01f  1
 145 -2.5889710e-01 1.74e-03 8.70e-02  -6.0 5.31e+00  -6.5 1.00e+00 1.00e+00f  1
 146 -2.5890653e-01 1.39e-03 1.69e+00  -6.0 6.93e+00  -7.0 1.00e+00 2.51e-01h  1
 147 -2.5892416e-01 2.71e-03 1.63e+00  -6.0 1.26e+01  -7.4 1.00e+00 7.28e-01f  1
 148 -2.5895152e-01 2.77e-02 2.97e-01  -6.0 5.95e+01  -7.9 8.81e-01 8.89e-01f  1
 149 -2.5912911e-01 4.02e-01 1.70e+00  -6.0 1.19e+02  -8.4 1.00e+00 1.00e+00f  1
iter    objective    inf_pr   inf_du lg(mu)  ||d||  lg(rg) alpha_du alpha_pr  ls
 150 -2.5936627e-01 1.15e+00 4.73e+00  -6.0 7.01e+02  -8.9 2.96e-01 2.45e-01h  1
 151 -2.5946293e-01 2.45e+00 5.47e+02  -6.0 4.13e+03    -  6.59e-01 2.52e-01h  1
 152 -2.5959069e-01 4.13e+00 7.84e+02  -6.0 3.94e+03    -  7.03e-01 3.35e-01h  1
 153 -2.5958272e-01 4.12e+00 7.65e+02  -6.0 1.68e+05    -  1.75e-02 2.14e-03h  1
 154 -2.5982137e-01 2.95e+00 4.25e+02  -6.0 5.84e+02  -9.4 1.02e-02 6.04e-01h  1
 155 -2.6014167e-01 9.86e-01 3.55e+02  -6.0 3.58e+02  -9.8 9.17e-01 1.00e+00h  1
 156 -2.6029538e-01 8.91e-01 2.46e+02  -6.0 2.28e+02  -9.4 1.55e-01 5.89e-01h  1
 157 -2.6019038e-01 6.08e-01 1.93e+05  -6.0 1.26e+02  -9.0 2.57e-02 1.00e+00h  1
 158 -2.6020299e-01 6.45e-01 1.01e+05  -6.0 7.16e+02  -9.5 4.37e-01 4.80e-01h  1
 159 -2.6032075e-01 9.01e-01 8.34e+01  -6.0 2.63e+02  -9.0 1.00e+00 1.00e+00h  1
iter    objective    inf_pr   inf_du lg(mu)  ||d||  lg(rg) alpha_du alpha_pr  ls
 160 -2.6037663e-01 6.69e-01 4.91e+01  -6.0 1.48e+02  -8.6 3.37e-01 4.26e-01h  1
 161 -2.6041795e-01 7.19e-01 5.53e+02  -6.0 6.67e+02  -9.1 1.00e+00 1.03e-01h  1
 162 -2.6049007e-01 4.81e-01 2.49e+01  -6.0 4.11e+02  -9.6 4.89e-01 1.00e+00h  1
 163 -2.6052071e-01 1.10e+00 4.66e+02  -6.0 9.10e+02    -  2.12e-01 4.26e-01h  1
 164 -2.6059882e-01 1.70e+00 4.95e+02  -6.0 7.29e+02 -10.0 7.61e-01 5.93e-01h  1
 165 -2.6062761e-01 1.42e+00 3.15e+04  -6.0 5.88e+02    -  3.67e-02 2.84e-01h  1
 166 -2.6071330e-01 2.32e+00 3.14e+02  -6.0 5.00e+02    -  5.24e-01 1.00e+00f  1
 167 -2.6073560e-01 3.57e-01 4.83e-01  -6.0 1.00e+02  -9.6 1.00e+00 1.00e+00h  1
 168 -2.6074959e-01 6.04e-01 7.20e-02  -6.0 2.05e+02 -10.1 1.00e+00 1.00e+00h  1
 169 -2.6075370e-01 1.78e+00 2.00e+01  -6.0 1.00e+03 -10.6 1.00e+00 3.09e-01h  2
iter    objective    inf_pr   inf_du lg(mu)  ||d||  lg(rg) alpha_du alpha_pr  ls
 170 -2.6075297e-01 2.72e+00 9.47e+01  -6.0 3.91e+04    -  6.13e-02 6.65e-03h  2
 171 -2.6074365e-01 8.86e+00 1.33e+02  -6.0 2.77e+03    -  1.00e+00 2.52e-01H  1
 172 -2.6073295e-01 3.92e+01 5.43e+01  -6.0 2.75e+03    -  6.86e-01 5.88e-01h  1
 173 -2.6070976e-01 4.05e+01 1.04e+03  -6.0 3.77e+03    -  1.01e-01 2.49e-01h  2
 174 -2.6077983e-01 1.70e+01 2.07e+02  -6.0 8.34e+02 -10.1 1.07e-01 6.67e-01h  1
 175 -2.6075477e-01 6.65e-02 2.23e+03  -6.0 7.65e+01  -9.7 3.22e-02 1.00e+00h  1
 176 -2.6077677e-01 3.98e-02 1.54e+00  -6.0 3.74e+01  -9.3 1.00e+00 1.00e+00h  1
 177 -2.6076583e-01 3.78e-01 1.75e-01  -6.0 8.76e+01  -9.8 1.00e+00 1.00e+00h  1
 178 -2.6076591e-01 2.66e-01 1.17e+01  -6.0 3.04e+02 -10.2 1.00e+00 3.34e-01h  2
 179 -2.6076327e-01 5.95e-01 3.46e-02  -6.0 1.18e+02  -9.8 1.00e+00 1.00e+00h  1
iter    objective    inf_pr   inf_du lg(mu)  ||d||  lg(rg) alpha_du alpha_pr  ls
 180 -2.6076047e-01 5.19e-01 2.55e+01  -6.0 6.91e+02    -  1.00e+00 1.51e-01h  2
 181 -2.6075435e-01 9.70e-01 5.84e+00  -6.0 4.05e+02    -  1.00e+00 4.37e-01h  2
 182 -2.6075394e-01 6.87e-01 5.72e+01  -6.0 3.31e+03    -  9.39e-01 2.10e-02h  2
 183 -2.6075035e-01 8.24e-01 2.02e+01  -6.0 8.09e+02    -  9.79e-01 2.35e-01h  2
 184 -2.6074765e-01 1.68e+00 1.89e+01  -6.0 1.17e+03    -  1.00e+00 2.57e-01h  2
 185 -2.6074615e-01 1.59e+00 1.49e+01  -6.0 7.23e+02    -  2.19e-01 2.10e-01h  2
 186 -2.6074333e-01 7.96e-02 9.34e-03  -6.0 8.18e+01    -  1.00e+00 1.00e+00h  1
 187 -2.6074341e-01 9.95e-03 1.67e-04  -6.0 2.94e+01    -  1.00e+00 1.00e+00h  1
 188 -2.6074342e-01 2.22e-04 1.05e-05  -6.0 4.38e+00    -  1.00e+00 1.00e+00h  1
 189 -2.6074342e-01 2.79e-09 1.20e-10  -6.0 1.54e-02    -  1.00e+00 1.00e+00h  1
iter    objective    inf_pr   inf_du lg(mu)  ||d||  lg(rg) alpha_du alpha_pr  ls
 190 -2.6122813e-01 1.39e+00 8.07e+01  -7.5 2.65e+03    -  5.02e-01 2.19e-01f  1
 191 -2.6141738e-01 3.76e+00 5.86e+01  -7.5 3.37e+03    -  3.06e-02 1.19e-01h  1
 192 -2.6144991e-01 3.63e+00 9.06e+01  -7.5 5.03e+02  -9.4 2.86e-01 3.72e-02h  1
 193 -2.6189184e-01 1.31e+01 4.96e+01  -7.5 2.56e+03    -  7.69e-04 3.83e-01h  1
 194 -2.6203936e-01 9.46e+00 7.12e+01  -7.5 1.83e+03    -  4.92e-01 2.80e-01h  1
 195 -2.6215488e-01 6.80e+00 8.45e+01  -7.5 1.62e+03    -  6.41e-01 2.82e-01h  1
 196 -2.6228181e-01 2.77e+00 3.43e+01  -7.5 1.99e+02  -9.9 5.30e-01 5.94e-01h  1
 197 -2.6237314e-01 1.34e+00 1.22e+01  -7.5 1.40e+03    -  1.77e-01 6.58e-01h  1
 198 -2.6237434e-01 1.31e+00 1.19e+01  -7.5 4.16e+02 -10.3 3.57e-02 2.35e-02h  1
 199 -2.6240396e-01 4.91e-01 4.56e+00  -7.5 4.22e+02 -10.8 5.33e-01 6.28e-01f  1
iter    objective    inf_pr   inf_du lg(mu)  ||d||  lg(rg) alpha_du alpha_pr  ls
 200 -2.6241419e-01 5.20e-01 1.79e+00  -7.5 4.17e+02 -11.3 1.00e+00 5.90e-01h  1
 201 -2.6241643e-01 3.76e-01 9.32e-01  -7.5 3.05e+02 -11.8 1.00e+00 4.65e-01h  1
 202 -2.6241625e-01 4.75e-01 8.82e-01  -7.5 1.72e+03 -12.3 3.43e-01 6.25e-02h  5
 203 -2.6241615e-01 4.75e-01 8.34e-01  -7.5 8.11e+02 -11.8 9.66e-01 6.25e-02h  5
 204 -2.6241610e-01 4.61e-01 8.03e-01  -7.5 3.04e+02 -11.4 1.00e+00 3.12e-02h  6
 205 -2.6241373e-01 1.50e-01 7.76e-02  -7.5 8.96e+01 -11.0 6.49e-01 1.00e+00h  1
 206 -2.6241368e-01 5.02e-02 4.10e-04  -7.5 2.46e+01 -10.5 1.00e+00 1.00e+00h  1
 207 -2.6241385e-01 1.71e-01 1.32e-02  -7.5 1.22e+02 -11.0 6.61e-01 1.00e+00H  1
 208 -2.6241391e-01 7.55e-01 1.61e-01  -7.5 4.86e+02 -11.5 1.00e+00 2.50e-01h  3
 209 -2.6241393e-01 8.52e-01 2.66e-01  -7.5 1.68e+03 -12.0 2.90e-01 6.25e-02h  5
iter    objective    inf_pr   inf_du lg(mu)  ||d||  lg(rg) alpha_du alpha_pr  ls
 210 -2.6241397e-01 9.93e-02 2.52e-05  -7.5 3.56e+01 -10.7 1.00e+00 1.00e+00h  1
 211 -2.6241404e-01 6.42e-01 4.75e-02  -7.5 3.88e+02 -11.1 2.25e-01 5.00e-01h  2
 212 -2.6241423e-01 3.56e-01 6.89e-03  -7.5 5.54e+02 -11.6 1.00e+00 1.00e+00H  1
 213 -2.6241441e-01 2.85e-01 6.64e-03  -7.5 5.80e+02 -12.1 1.00e+00 1.00e+00H  1
 214 -2.6241451e-01 1.35e+00 9.76e-01  -7.5 2.36e+03 -12.6 1.00e+00 1.25e-01h  4
 215 -2.6241454e-01 1.43e+00 2.98e+00  -7.5 1.32e+04    -  3.92e-01 6.39e-03h  6
 216 -2.6241480e-01 7.30e+00 3.43e-03  -7.5 7.56e+02    -  1.00e+00 1.00e+00h  1
 217 -2.6241507e-01 1.19e+01 1.04e+00  -7.5 7.65e+03 -13.0 2.74e-01 8.20e-02h  3
 218 -2.6241534e-01 1.55e+01 2.56e+00  -7.5 7.27e+03    -  6.15e-01 8.08e-02h  3
 219 -2.6241601e-01 2.18e+01 3.22e-02  -7.5 1.25e+03    -  1.00e+00 1.00e+00h  1
iter    objective    inf_pr   inf_du lg(mu)  ||d||  lg(rg) alpha_du alpha_pr  ls
 220 -2.6241631e-01 3.68e+00 1.01e+00  -7.5 3.96e+02 -11.7 2.00e-01 1.00e+00h  1
 221 -2.6241632e-01 5.76e-03 3.52e-04  -7.5 1.73e+01 -10.4 1.00e+00 1.00e+00h  1
 222 -2.6241670e-01 2.30e+01 7.37e-01  -7.5 1.39e+03    -  7.95e-02 1.00e+00H  1
 223 -2.6241668e-01 1.55e-04 5.00e-02  -7.5 2.13e+01 -10.9 8.11e-01 1.00e+00h  1
 224 -2.6241754e-01 2.36e+00 7.41e-02  -7.5 1.14e+03    -  8.98e-01 1.00e+00H  1
 225 -2.6241727e-01 2.78e+00 2.71e-02  -7.5 4.19e+02    -  1.00e+00 1.00e+00h  1
 226 -2.6241727e-01 5.41e-04 3.44e-05  -7.5 3.09e+00    -  1.00e+00 1.00e+00h  1
 227 -2.6241727e-01 7.87e-05 6.12e-07  -7.5 2.24e+00    -  1.00e+00 1.00e+00h  1
 228 -2.6241727e-01 1.82e-10 5.45e-13  -7.5 4.56e-04    -  1.00e+00 1.00e+00h  1
 229 -2.6241977e-01 2.99e+00 2.65e+00  -9.0 1.70e+03    -  5.24e-01 2.58e-01h  1
iter    objective    inf_pr   inf_du lg(mu)  ||d||  lg(rg) alpha_du alpha_pr  ls
 230 -2.6242185e-01 6.18e+01 1.42e+00  -9.0 5.71e+03    -  2.68e-01 3.41e-01h  1
 231 -2.6242274e-01 4.38e+01 6.57e-01  -9.0 1.56e+03    -  3.78e-01 4.23e-01h  1
 232 -2.6242315e-01 3.66e+01 4.14e-01  -9.0 1.85e+03    -  2.54e-01 2.81e-01h  1
 233 -2.6242423e-01 1.00e+02 1.39e+01  -9.0 4.56e+03    -  3.28e-02 6.49e-01h  1
 234 -2.6242529e-01 4.83e+01 3.88e+01  -9.0 1.82e+03    -  9.40e-04 1.00e+00h  1
 235 -2.6242551e-01 9.27e+00 7.58e+00  -9.0 7.77e+02    -  1.15e-01 1.00e+00h  1
 236 -2.6242585e-01 1.79e+01 8.29e-01  -9.0 1.12e+03    -  4.28e-01 1.00e+00h  1
 237 -2.6242597e-01 8.59e+00 1.92e-01  -9.0 6.71e+02    -  7.60e-01 9.19e-01h  1
 238 -2.6242598e-01 8.58e+00 1.83e-01  -9.0 8.06e+03    -  2.03e-01 5.20e-03h  5
 239 -2.6242601e-01 8.55e+00 1.24e-01  -9.0 2.23e+03    -  9.12e-01 7.01e-02h  3
iter    objective    inf_pr   inf_du lg(mu)  ||d||  lg(rg) alpha_du alpha_pr  ls
 240 -2.6242610e-01 8.75e+00 4.65e-02  -9.0 1.19e+03    -  9.92e-01 3.57e-01H  1
 241 -2.6242604e-01 1.42e+00 5.27e-02  -9.0 3.11e+02    -  4.77e-01 1.00e+00h  1
 242 -2.6242637e-01 3.60e+01 4.24e-02  -9.0 2.00e+03    -  9.90e-02 7.87e-01h  1
 243 -2.6242632e-01 2.80e+01 3.46e-02  -9.0 1.06e+03    -  1.80e-01 2.50e-01h  3
 244 -2.6242634e-01 2.81e+01 3.29e-02  -9.0 3.26e+04    -  5.04e-02 2.97e-03h  5
 245 -2.6242638e-01 2.83e+01 4.31e-02  -9.0 1.50e+04    -  1.02e-01 1.29e-02h  4
 246 -2.6242640e-01 1.66e-01 2.89e-02  -9.0 7.51e+01 -11.3 2.60e-01 1.00e+00h  1
 247 -2.6242692e-01 3.30e+01 1.67e-02  -9.0 2.39e+03    -  1.00e+00 1.00e+00H  1
 248 -2.6242695e-01 3.15e+01 1.54e-02  -9.0 3.19e+03    -  5.23e-02 7.88e-02h  3
 249 -2.6242694e-01 1.62e-01 1.60e-04  -9.0 6.42e+01 -11.8 1.00e+00 1.00e+00h  1
iter    objective    inf_pr   inf_du lg(mu)  ||d||  lg(rg) alpha_du alpha_pr  ls
 250 -2.6242697e-01 6.19e-01 1.18e-04  -9.0 1.87e+02 -12.3 1.00e+00 1.00e+00h  1
 251 -2.6242703e-01 4.06e+00 1.10e-03  -9.0 4.77e+02 -12.8 1.00e+00 1.00e+00h  1
 252 -2.6242704e-01 3.98e+00 3.23e-03  -9.0 1.55e+03 -13.2 1.06e-01 3.12e-02h  6
 253 -2.6242718e-01 2.75e+00 3.55e-02  -9.0 1.30e+03 -12.8 3.63e-02 1.00e+00H  1
 254 -2.6242722e-01 2.49e+00 1.21e-03  -9.0 3.60e+02 -12.4 1.00e+00 1.00e+00h  1
Error in an AMPL evaluation. Run with "halt_on_ampl_error yes" to see details.
Warning: Cutting back alpha due to evaluation error
 255 -2.6242723e-01 1.51e+01 5.70e-03  -9.0 1.70e+04    -  5.50e-02 4.70e-02h  2
 256 -2.6242725e-01 1.44e+01 4.61e-02  -9.0 2.89e+03    -  6.77e-01 6.27e-02h  4
 257 -2.6242727e-01 1.28e+01 4.11e-02  -9.0 1.49e+03    -  1.00e+00 2.50e-01h  3
 258 -2.6242730e-01 1.16e+01 3.03e-03  -9.0 7.30e+02    -  1.00e+00 1.00e+00h  1
 259 -2.6242731e-01 1.79e+00 8.81e-05  -9.0 2.72e+02    -  1.00e+00 1.00e+00h  1
iter    objective    inf_pr   inf_du lg(mu)  ||d||  lg(rg) alpha_du alpha_pr  ls
 260 -2.6242730e-01 9.07e-02 1.92e-05  -9.0 6.51e+01    -  1.00e+00 1.00e+00h  1
 261 -2.6242730e-01 1.72e-04 2.95e-08  -9.0 2.85e+00    -  1.00e+00 1.00e+00h  1
 262 -2.6242730e-01 1.64e-09 4.72e-13  -9.0 8.36e-03    -  1.00e+00 1.00e+00h  1

Number of Iterations....: 262

                                   (scaled)                 (unscaled)
Objective...............:  -2.6242729606528198e-01   -2.6242729606528198e-01
Dual infeasibility......:   4.7226448509636179e-13    4.7226448509636179e-13
Constraint violation....:   8.7899228255932908e-10    1.6407284419983625e-09
Complementarity.........:   9.0909092274868124e-10    9.0909092274868124e-10
Overall NLP error.......:   9.0909092274868124e-10    1.6407284419983625e-09


Number of objective function evaluations             = 473
Number of objective gradient evaluations             = 263
Number of equality constraint evaluations            = 474
Number of inequality constraint evaluations          = 474
Number of equality constraint Jacobian evaluations   = 264
Number of inequality constraint Jacobian evaluations = 264
Number of Lagrangian Hessian evaluations             = 262
Total CPU secs in IPOPT (w/o function evaluations)   =    565.818
Total CPU secs in NLP function evaluations           =     12.188

EXIT: Optimal Solution Found.
